32      4       
10      10      10      10      
0       0       0       0       0       2       2       3       
4       1       1       0       1       5       4       5       7       8       10      
2       0       7       1       4       4       6       8       10      16      
8       6       3       3       0       5       11      12      13      16      17      
5       4       7       3       0       4       9       13      16      17      
2       5       2       0       7       3       7       13      17      
7       0       3       4       3       3       11      12      19      
10      2       0       4       4       3       11      12      14      
1       7       5       4       0       4       12      15      18      19      
7       3       3       4       0       3       11      17      21      
9       8       5       2       0       2       15      18      
3       3       4       3       0       4       20      21      22      24      
3       4       3       3       0       3       19      22      24      
6       9       4       0       5       1       15      
2       3       4       3       0       3       20      22      24      
1       6       5       8       0       3       20      22      24      
8       3       4       2       0       2       20      22      
4       4       6       0       3       3       22      25      28      
6       0       2       3       5       1       20      
7       4       0       4       6       3       23      25      28      
2       3       5       0       8       3       23      25      28      
2       2       0       7       4       1       23      
8       1       0       6       3       4       26      27      30      31      
4       1       0       5       2       4       26      27      30      31      
2       0       2       7       7       2       29      30      
9       4       4       5       0       1       29      
7       6       2       0       3       1       29      
5       0       3       2       2       1       29      
4       3       4       0       3       1       32      
10      5       0       5       3       1       32      
4       3       8       0       3       1       32      
0       0       0       0       0       0       
